c .nnodes 80
c .nvars 268
c .nsuppvars 145
c .ids  0 1 2 3 4 5 6 7 8 9 10 11 12 13 14 15 16 17 18 19 20 21 22 23 24 25 26 27 28 29 30 31 32 33 34 35 36 37 38 39 40 41 42 43 44 45 46 47 48 49 50 51 52 53 54 55 56 57 58 59 60 61 62 63 64 65 66 67 68 69 70 71 72 73 74 75 76 77 78 79 80 81 82 83 84 85 86 87 88 89 90 91 92 93 94 95 96 97 98 99 100 101 102 103 104 105 106 107 108 109 110 111 112 113 114 115 116 117 118 119 120 121 122 123 124 125 126 127 128 129 130 131 132 133 134 135 136 137 138 139 140 141 142 143 144 
c .cnfids  436 433 435 434 427 432 556 439 551 558 496 476 507 524 536 489 456 510 498 530 546 445 446 501 443 542 559 479 466 494 452 523 475 428 429 430 431 528 441 468 470 493 535 548 454 483 505 440 554 459 497 520 444 457 522 552 537 458 485 511 437 449 504 525 541 462 514 447 492 544 521 450 478 487 488 533 467 472 502 517 547 495 464 549 481 442 482 532 553 490 500 550 473 484 516 534 465 531 480 461 509 527 448 463 474 557 503 491 555 477 515 518 529 543 451 453 486 506 519 545 508 540 512 513 539 460 455 471 499 422 526 538 438 421 426 425 423 424 420 418 419 417 416 415 469 
c .nroots 1
c .rootids 2
p cnf 683 1849
3 -4 -270 -291 -404 0
-3 404 0
-3 4 0
-3 291 0
-3 270 0
4 -5 -231 -257 -265 0
-4 265 0
-4 5 0
-4 257 0
-4 231 0
5 -6 132 185 -192 0
-5 192 0
-5 -185 0
-5 6 0
-5 -132 0
6 -463 484 7 -127 0
6 463 484 -7 -127 0
6 463 -484 -7 127 0
6 -463 -484 7 127 0
-6 -463 -7 0
-6 463 7 0
-6 484 127 0
-6 -484 -127 0
7 8 -20 0
7 8 122 125 0
-7 -8 0
-7 20 -125 0
-7 20 -122 0
8 9 -10 0
-8 -9 0
-8 10 0
9 415 -416 0
-9 -415 0
-9 416 0
10 -549 -16 0
10 11 -16 0
-10 16 0
-10 549 -11 0
11 -12 -13 0
11 512 -12 -15 0
-11 12 0
-11 -512 13 0
-11 13 15 0
12 469 538 0
-12 -469 0
-12 -538 0
13 503 513 557 -14 0
-13 14 0
-13 -557 0
-13 -503 0
-13 -513 0
14 448 -455 460 491 0
-14 455 0
-14 -491 0
-14 -448 0
-14 -460 0
15 455 461 0
-15 -455 0
-15 -461 0
16 -11 17 0
16 17 -18 0
-16 -17 0
-16 11 18 0
17 -490 -549 0
-17 490 0
-17 549 0
18 -474 12 -19 0
18 -463 -12 -19 0
-18 19 0
-18 474 12 0
-18 463 -12 0
19 474 527 0
19 463 539 0
19 527 539 0
19 463 474 0
-19 -463 -527 0
-19 -474 -539 0
20 -21 -87 0
-20 21 0
-20 87 0
21 -22 69 84 0
21 -32 69 84 0
-21 -84 0
-21 -69 0
-21 22 32 0
22 9 23 25 0
-22 -9 0
-22 -25 0
-22 -23 0
23 -417 -24 0
-23 417 0
-23 24 0
24 415 416 0
-24 -415 0
-24 -416 0
25 -26 -30 0
-25 26 0
-25 30 0
26 -28 0
26 -541 27 0
-26 -27 28 0
-26 541 28 0
27 450 469 521 0
-27 -450 0
-27 -521 0
-27 -469 0
28 -478 -27 29 0
28 -488 -27 -29 0
-28 27 0
-28 488 -29 0
-28 478 29 0
29 467 517 0
-29 -467 0
-29 -517 0
30 418 -419 -31 0
-30 31 0
-30 419 0
-30 -418 0
31 417 -24 0
-31 -417 0
-31 24 0
32 -33 57 65 0
32 -34 57 65 0
-32 -65 0
-32 -57 0
-32 33 34 0
33 415 23 25 0
-33 -415 0
-33 -25 0
-33 -23 0
34 -24 35 51 0
34 35 51 55 0
-34 -51 0
-34 -35 0
-34 24 -55 0
35 -36 -46 0
-35 36 0
-35 46 0
36 -23 -37 0
-36 23 0
-36 37 0
37 509 -43 0
37 442 -43 0
37 442 -509 -38 0
-37 509 43 0
-37 -442 -509 0
-37 38 43 0
38 -39 -40 0
38 543 -39 -42 0
-38 39 0
-38 -543 40 0
-38 40 42 0
39 469 526 0
-39 -469 0
-39 -526 0
40 529 540 555 -41 0
-40 41 0
-40 -555 0
-40 -529 0
-40 -540 0
41 471 486 -499 519 0
-41 -471 0
-41 -519 0
-41 499 0
-41 -486 0
42 477 499 0
-42 -477 0
-42 -499 0
43 38 -44 0
-43 -38 0
-43 44 0
44 -518 39 -45 0
44 -506 -39 -45 0
-44 45 0
-44 518 39 0
-44 506 -39 0
45 506 515 0
45 453 518 0
45 506 518 0
45 453 515 0
-45 -453 -506 0
-45 -515 -518 0
46 544 -48 0
46 487 -48 0
46 487 -544 -47 0
-46 544 48 0
-46 -487 -544 0
-46 47 48 0
47 472 502 533 -39 0
-47 39 0
-47 -533 0
-47 -472 0
-47 -502 0
48 47 -49 0
-48 -47 0
-48 49 0
49 -532 39 -50 0
49 -547 -39 -50 0
-49 50 0
-49 532 39 0
-49 547 -39 0
50 495 532 0
50 482 547 0
50 532 547 0
50 482 495 0
-50 -482 -532 0
-50 -495 -547 0
51 -36 -52 0
-51 36 0
-51 52 0
52 544 -53 0
52 487 -53 0
-52 53 0
-52 -487 -544 0
53 -487 -47 0
53 47 -54 0
-53 487 -47 0
-53 47 54 0
54 -482 39 -50 0
54 -495 -39 -50 0
-54 50 0
-54 482 39 0
-54 495 -39 0
55 -422 423 56 0
55 422 423 -56 0
-55 -423 0
-55 -422 -56 0
-55 422 56 0
56 -420 -421 0
-56 420 0
-56 421 0
57 -58 -59 0
-57 58 0
-57 59 0
58 -9 -10 0
-58 9 0
-58 10 0
59 -520 -61 0
59 60 -61 0
-59 61 0
-59 520 -60 0
60 485 537 552 -12 0
-60 12 0
-60 -552 0
-60 -485 0
-60 -537 0
61 -60 62 0
61 62 -63 0
-61 -62 0
-61 60 63 0
62 -457 -520 0
-62 457 0
-62 520 0
63 -514 12 -64 0
63 -525 -12 -64 0
-63 64 0
-63 514 12 0
-63 525 -12 0
64 462 514 0
64 447 525 0
64 514 525 0
64 447 462 0
-64 -447 -514 0
-64 -462 -525 0
65 -58 -66 0
-65 58 0
-65 66 0
66 520 -67 0
66 457 -67 0
66 -457 520 -60 0
-66 -457 -520 0
-66 457 67 0
-66 60 67 0
67 60 -68 0
-67 -60 0
-67 68 0
68 -447 12 -64 0
68 -462 -12 -64 0
-68 64 0
-68 447 12 0
-68 462 -12 0
69 -70 -79 0
-69 70 0
-69 79 0
70 -415 -71 0
-70 415 0
-70 71 0
71 481 72 -77 0
71 -464 481 -72 0
71 464 72 -77 0
-71 72 77 0
-71 464 -72 0
-71 -464 -481 0
72 -73 -74 0
72 553 -73 -76 0
-72 73 0
-72 -553 74 0
-72 74 76 0
73 438 469 0
-73 -438 0
-73 -469 0
74 516 531 -545 -75 0
-74 -516 0
-74 75 0
-74 545 0
-74 -531 0
75 451 465 480 508 0
-75 -508 0
-75 -480 0
-75 -451 0
-75 -465 0
76 500 545 0
-76 -500 0
-76 -545 0
77 -534 73 -78 0
77 -550 -73 -78 0
-77 78 0
-77 534 73 0
-77 550 -73 0
78 484 534 0
78 473 550 0
78 534 550 0
78 473 484 0
-78 -473 -534 0
-78 -484 -550 0
79 497 -81 0
79 444 -81 0
79 -444 497 -80 0
-79 -444 -497 0
-79 444 81 0
-79 80 81 0
80 458 511 522 -73 0
-80 73 0
-80 -522 0
-80 -458 0
-80 -511 0
81 80 -82 0
-81 -80 0
-81 82 0
82 -449 73 -83 0
82 -437 -73 -83 0
-82 83 0
-82 449 73 0
-82 437 -73 0
83 492 504 0
83 437 449 0
83 449 504 0
83 437 492 0
-83 -449 -492 0
-83 -437 -504 0
84 -70 -85 0
-84 70 0
-84 85 0
85 444 -497 -80 0
85 497 80 -86 0
85 444 -497 -86 0
-85 80 86 0
-85 497 -80 0
-85 -444 -497 0
86 -492 73 -83 0
86 -504 -73 -83 0
-86 83 0
-86 492 73 0
-86 504 -73 0
87 88 -113 0
-87 -88 0
-87 113 0
88 -22 106 107 0
88 -89 106 107 0
-88 -107 0
-88 -106 0
-88 22 89 0
89 58 90 100 0
89 -66 90 100 0
-89 -100 0
-89 -90 0
-89 -58 66 0
90 33 -91 0
90 33 97 0
90 33 -96 0
-90 -33 0
-90 91 96 -97 0
91 424 -92 0
-91 -424 0
-91 92 0
92 -93 94 0
-92 93 0
-92 -94 0
93 -23 37 0
-93 23 0
-93 -37 0
94 509 38 -95 0
94 -442 509 -38 0
94 442 38 -95 0
-94 38 95 0
-94 442 -38 0
-94 -442 -509 0
95 -515 39 -45 0
95 -453 -39 -45 0
-95 45 0
-95 515 39 0
-95 453 -39 0
96 -36 46 52 0
-96 36 0
-96 -52 0
-96 -46 0
97 51 98 0
-97 -51 0
-97 -98 0
98 24 -99 0
98 -417 -25 -99 0
-98 99 0
-98 -24 25 0
-98 417 -24 0
99 420 423 0
-99 -420 0
-99 -423 0
100 425 -101 0
-100 -425 0
-100 101 0
101 -102 103 0
-101 102 0
-101 -103 0
102 -9 10 0
-102 9 0
-102 -10 0
103 549 -104 0
103 490 -104 0
103 -490 549 -11 0
-103 -490 -549 0
-103 490 104 0
-103 11 104 0
104 11 -105 0
-104 -11 0
-104 105 0
105 -539 12 -19 0
105 -527 -12 -19 0
-105 19 0
-105 539 12 0
-105 527 -12 0
106 -70 79 0
-106 70 0
-106 -79 0
107 426 -108 0
-107 -426 0
-107 108 0
108 -109 110 0
-108 109 0
-108 -110 0
109 -415 71 0
-109 415 0
-109 -71 0
110 481 -111 0
110 464 -111 0
110 464 -481 -72 0
-110 481 111 0
-110 -464 -481 0
-110 72 111 0
111 72 -112 0
-111 -72 0
-111 112 0
112 -473 73 -78 0
112 -484 -73 -78 0
-112 78 0
-112 473 73 0
-112 484 -73 0
113 106 114 -120 0
113 -85 114 -120 0
-113 120 0
-113 -114 0
-113 85 -106 0
114 22 119 0
114 22 33 115 0
-114 -22 0
-114 -33 -119 0
-114 -115 -119 0
115 424 35 -116 0
115 35 92 -116 0
-115 116 0
-115 -35 0
-115 -424 -92 0
116 96 -117 0
-116 -96 0
-116 117 0
117 24 118 0
117 -24 94 0
117 417 -24 0
-117 24 -118 0
-117 -417 -24 -94 0
118 420 -421 423 0
118 -420 421 423 0
-118 -423 0
-118 420 421 0
-118 -420 -421 0
119 425 58 0
119 -59 101 0
119 58 101 0
119 425 -59 0
-119 -425 -101 0
-119 -58 59 0
120 426 69 -121 0
120 69 108 -121 0
-120 121 0
-120 -69 0
-120 -426 -108 0
121 -415 110 0
121 415 103 0
121 415 416 0
-121 -415 -110 0
-121 415 -416 -103 0
122 -9 -123 0
-122 9 0
-122 123 0
123 -21 -124 0
-123 21 0
-123 124 0
124 -88 113 0
-124 88 0
-124 -113 0
125 -10 -88 126 0
-125 10 0
-125 88 0
-125 -126 0
126 21 -124 0
-126 -21 0
-126 124 0
127 415 130 0
127 -128 129 130 0
-127 -130 0
-127 -415 128 0
-127 -415 -129 0
128 20 126 0
-128 -20 0
-128 -126 0
129 -31 -110 0
-129 31 0
-129 110 0
130 435 71 123 -131 0
-130 131 0
-130 -123 0
-130 -435 0
-130 -71 0
131 415 -110 0
-131 -415 0
-131 110 0
132 -470 183 0
132 -133 -181 183 0
-132 -183 0
-132 470 181 0
-132 470 133 0
133 -134 -135 0
133 528 -134 156 0
-133 134 0
-133 -528 135 0
-133 135 -156 0
134 428 429 430 431 0
-134 -431 0
-134 -430 0
-134 -428 0
-134 -429 0
135 -136 -143 0
-135 136 0
-135 143 0
136 -137 -142 0
-136 137 0
-136 142 0
137 -493 141 0
137 138 -140 0
137 138 141 0
137 -493 -140 0
-137 493 -138 0
-137 140 -141 0
138 -9 -139 0
-138 9 0
-138 139 0
139 483 -505 0
-139 -483 0
-139 505 0
140 425 483 0
-140 -425 0
-140 -483 0
141 505 -9 0
-141 -505 0
-141 9 0
142 -468 141 0
142 138 140 0
142 138 141 0
142 -468 140 0
-142 468 -138 0
-142 -140 -141 0
143 -144 -150 0
-143 144 0
-143 150 0
144 145 148 0
-144 -145 0
-144 -148 0
145 -23 -146 0
145 459 -23 -147 0
-145 23 0
-145 -459 146 0
-145 146 147 0
146 424 440 535 0
-146 -424 0
-146 -535 0
-146 -440 0
147 440 -535 0
-147 -440 0
-147 535 0
148 535 -149 0
148 440 554 -149 0
-148 149 0
-148 -535 -554 0
-148 -440 -535 0
149 -424 -23 0
149 -440 -23 0
149 -535 -23 0
-149 23 0
-149 424 440 535 0
150 -151 -155 0
-150 151 0
-150 155 0
151 -441 154 0
151 152 -153 0
151 152 154 0
151 -441 -153 0
-151 441 -152 0
-151 153 -154 0
152 -415 454 -548 0
-152 415 0
-152 -454 0
-152 548 0
153 426 454 0
-153 -426 0
-153 -454 0
154 -415 548 0
-154 415 0
-154 -548 0
155 -470 154 0
155 152 153 0
155 152 154 0
155 -470 153 0
-155 470 -152 0
-155 -153 -154 0
156 157 180 0
156 -452 23 157 0
-156 -157 0
-156 452 -180 0
-156 -23 -180 0
157 158 178 0
-157 -158 0
-157 -178 0
158 -159 -171 0
-158 159 0
-158 171 0
159 160 -161 0
159 160 164 170 0
-159 -160 0
-159 161 -170 0
-159 161 -164 0
160 441 -470 -152 0
160 -441 470 -152 0
-160 152 0
-160 441 470 0
-160 -441 -470 0
161 -144 -162 0
-161 144 0
-161 162 0
162 -136 163 0
-162 136 0
-162 -163 0
163 -528 -30 0
-163 528 0
-163 30 0
164 165 -168 0
164 -55 165 -166 0
-164 -165 0
-164 166 168 0
-164 55 168 0
165 -143 163 0
-165 143 0
-165 -163 0
166 135 167 0
-166 -135 0
-166 -167 0
167 -150 -162 0
-167 150 0
-167 162 0
168 459 -554 -169 0
168 -459 554 -169 0
-168 169 0
-168 459 554 0
-168 -459 -554 0
169 -23 -147 0
-169 23 0
-169 147 0
170 468 -493 -138 0
170 -468 493 -138 0
-170 138 0
-170 468 493 0
-170 -468 -493 0
171 -155 172 -174 0
171 -155 172 176 0
-171 155 0
-171 -172 0
-171 174 -176 0
172 -151 -161 0
172 -137 -151 173 0
-172 151 0
-172 161 -173 0
-172 137 161 0
173 -148 165 0
173 -118 165 -166 0
-173 -165 0
-173 148 166 0
-173 118 148 0
174 -142 -165 0
174 -142 145 175 0
-174 142 0
-174 -145 165 0
-174 165 -175 0
175 420 423 167 0
-175 -420 0
-175 -167 0
-175 -423 0
176 161 -177 0
176 161 -167 0
176 161 -165 0
-176 -161 0
-176 165 167 177 0
177 56 135 0
177 -423 135 0
177 422 135 0
-177 -135 0
-177 -422 423 -56 0
178 135 -179 0
-178 -135 0
-178 179 0
179 -159 -172 0
-179 159 0
-179 172 0
180 475 523 0
180 -415 523 0
180 415 -416 475 0
-180 -415 -523 0
-180 415 -475 0
-180 416 -523 0
181 432 -182 0
-181 -432 0
-181 182 0
182 415 454 -548 -178 0
-182 -415 0
-182 178 0
-182 548 0
-182 -454 0
183 441 -470 -181 0
183 441 -470 184 0
-183 -441 0
-183 470 0
-183 -184 181 0
184 -160 -133 0
184 -133 -182 0
-184 133 0
-184 160 182 0
185 -454 -548 187 0
185 -548 -186 187 0
-185 548 0
-185 -187 0
-185 454 186 0
186 -415 -133 0
-186 415 0
-186 133 0
187 -158 178 -186 0
187 178 -186 -188 0
-187 186 0
-187 -178 0
-187 158 188 0
188 454 -548 -189 0
-188 189 0
-188 548 0
-188 -454 0
189 190 191 0
-189 -190 0
-189 -191 0
190 171 179 0
-190 -171 0
-190 -179 0
191 159 -171 0
-191 -159 0
-191 171 0
192 527 -193 222 -227 0
192 -527 -193 222 227 0
-192 -222 0
-192 -527 -227 0
-192 193 0
-192 527 227 0
193 524 -194 -203 -218 0
193 -524 194 -203 -218 0
-193 218 0
-193 524 194 0
-193 203 0
-193 -524 -194 0
194 109 -195 0
194 109 198 0
194 109 -196 0
-194 -109 0
-194 195 196 -198 0
195 415 -126 0
-195 -415 0
-195 126 0
196 415 -197 0
-196 -415 0
-196 197 0
197 21 -87 0
-197 -21 0
-197 87 0
198 25 199 0
-198 -25 0
-198 -199 0
199 476 -200 0
199 200 202 0
-199 -476 -200 0
-199 200 -202 0
200 466 479 -73 -201 0
-200 -466 0
-200 201 0
-200 73 0
-200 -479 0
201 494 530 546 0
-201 -494 0
-201 -546 0
-201 -530 0
202 -536 73 0
202 -524 -73 0
-202 536 73 0
-202 524 -73 0
203 -450 550 -204 -207 0
203 -450 -550 204 -207 0
203 450 550 -204 207 0
203 450 -550 204 207 0
-203 -550 -204 0
-203 550 204 0
-203 450 -207 0
-203 -450 207 0
204 205 206 0
-204 -205 0
-204 -206 0
205 415 -71 0
-205 -415 0
-205 71 0
206 -415 -123 0
-206 415 0
-206 123 0
207 208 213 0
207 23 208 209 0
-207 -208 0
-207 -23 -213 0
-207 -209 -213 0
208 20 123 0
-208 -20 0
-208 -123 0
209 556 -210 0
209 210 212 0
-209 -556 -210 0
-209 210 -212 0
210 446 489 -39 -211 0
-210 -446 0
-210 211 0
-210 39 0
-210 -489 0
211 501 542 559 0
-211 -501 0
-211 -559 0
-211 -542 0
212 -551 -39 0
212 -496 39 0
-212 496 39 0
-212 551 -39 0
213 -415 -214 0
213 -199 -214 0
213 415 -416 -199 0
-213 -415 214 0
-213 415 199 0
-213 416 214 0
214 439 -215 0
214 215 217 0
-214 -439 -215 0
-214 215 -217 0
215 443 445 -12 -216 0
-215 -443 0
-215 216 0
-215 12 0
-215 -445 0
216 456 498 510 0
-216 -456 0
-216 -510 0
-216 -498 0
217 -558 -12 0
217 -507 12 0
-217 507 12 0
-217 558 -12 0
218 506 526 207 -219 0
218 506 -526 -207 -219 0
218 -506 -526 -207 219 0
218 -506 526 207 219 0
-218 -506 -219 0
-218 506 219 0
-218 -526 207 0
-218 526 -207 0
219 220 221 0
-219 -220 0
-219 -221 0
220 23 -37 0
-220 -23 0
-220 37 0
221 -23 -123 0
-221 23 0
-221 123 0
222 437 -223 0
222 -437 223 0
-222 -437 -223 0
-222 437 223 0
223 -224 226 0
223 70 -79 226 0
-223 -226 0
-223 -70 224 0
-223 79 224 0
224 432 -225 0
-224 -432 0
-224 225 0
225 -20 -205 0
-225 20 0
-225 205 0
226 -432 -225 0
226 70 -85 225 0
-226 85 225 0
-226 432 -225 0
-226 -70 225 0
227 9 229 0
227 -128 228 229 0
-227 -229 0
-227 -9 128 0
-227 -9 -228 0
228 -31 -103 0
-228 31 0
-228 103 0
229 433 10 123 -230 0
-229 230 0
-229 -123 0
-229 -433 0
-229 -10 0
230 9 -103 0
-230 -9 0
-230 103 0
231 -558 232 236 -243 0
231 558 -232 236 -243 0
-231 243 0
-231 558 232 0
-231 -236 0
-231 -558 -232 0
232 102 -233 0
232 102 234 0
-232 -102 0
-232 233 -234 0
233 9 -126 0
-233 -9 0
-233 126 0
234 25 214 235 0
-234 -25 0
-234 -235 0
-234 -214 0
235 9 -197 0
-235 -9 0
-235 197 0
236 454 -237 0
236 -454 -133 237 0
236 -454 -548 237 0
-236 -454 -237 0
-236 454 237 0
-236 -454 548 133 0
237 -133 -241 0
237 -415 -133 238 0
-237 133 0
-237 -238 241 0
-237 415 241 0
238 178 239 0
238 178 -240 0
-238 -178 0
-238 -239 240 0
239 158 190 0
-239 -158 0
-239 -190 0
240 -454 -548 0
240 454 191 0
-240 -454 548 0
-240 454 -191 0
241 415 435 158 -242 0
-241 242 0
-241 -158 0
-241 -415 0
-241 -435 0
242 -454 548 0
-242 454 0
-242 -548 0
243 551 -244 248 0
243 -551 244 248 0
-243 -248 0
-243 551 244 0
-243 -551 -244 0
244 93 -245 0
244 93 247 0
244 93 -246 0
-244 -93 0
-244 245 246 -247 0
245 23 -197 0
-245 -23 0
-245 197 0
246 23 -126 0
-246 -23 0
-246 126 0
247 25 209 0
-247 -25 0
-247 -209 0
248 483 -249 0
248 -483 -133 249 0
248 -483 -505 249 0
-248 -483 -249 0
-248 483 249 0
-248 -483 505 133 0
249 -250 -254 0
-249 250 0
-249 254 0
250 -133 251 252 0
250 -133 251 -253 0
-250 133 0
-250 -251 0
-250 -252 253 0
251 9 -139 0
-251 -9 0
-251 139 0
252 -9 178 0
-252 9 0
-252 -178 0
253 158 189 0
253 139 158 0
-253 -158 0
-253 -139 -189 0
254 -9 -178 0
254 9 -256 0
254 -9 -255 0
-254 9 256 0
-254 -9 178 255 0
255 -483 505 -239 0
255 483 -191 -239 0
-255 239 0
-255 483 191 0
-255 -483 -505 0
256 433 -483 505 158 0
-256 483 0
-256 -158 0
-256 -433 0
-256 -505 0
257 -547 -258 262 0
257 547 258 262 0
-257 -262 0
-257 -547 258 0
-257 547 -258 0
258 -259 261 0
258 36 -46 261 0
-258 -261 0
-258 -36 259 0
-258 46 259 0
259 427 -260 0
-259 -427 0
-259 260 0
260 -20 -220 0
-260 20 0
-260 220 0
261 -427 -260 0
261 36 -52 260 0
-261 52 260 0
-261 427 -260 0
-261 -36 260 0
262 -441 264 0
262 -133 -263 264 0
-262 -264 0
-262 441 263 0
-262 441 133 0
263 -432 -182 0
-263 432 0
-263 182 0
264 -441 470 184 0
264 -441 470 -263 0
-264 441 0
-264 -470 0
-264 -184 263 0
265 -505 266 -269 0
265 505 266 269 0
-265 -266 0
-265 -505 269 0
-265 505 -269 0
266 452 -23 -267 0
266 -452 23 -268 0
-266 23 268 0
-266 -452 -23 0
-266 -23 267 0
-266 452 23 0
267 157 -133 0
-267 -157 0
-267 133 0
268 -163 -133 0
268 159 -133 0
-268 133 0
-268 163 -159 0
269 -139 250 0
269 -133 250 0
-269 -250 0
-269 139 133 0
270 271 277 -280 -285 0
-270 -271 0
-270 285 0
-270 280 0
-270 -277 0
271 -468 -493 0
271 493 -272 0
271 -493 -275 0
-271 493 272 0
-271 468 -493 275 0
272 -434 -273 0
-272 434 0
-272 273 0
273 -133 -274 0
-273 133 0
-273 274 0
274 -178 -251 0
-274 178 0
-274 251 0
275 434 -133 -274 0
275 -133 274 -276 0
-275 133 0
-275 274 276 0
-275 -434 -274 0
276 -9 159 -172 0
-276 9 0
-276 -159 0
-276 172 0
277 -468 -493 0
277 468 -278 0
277 -468 -279 0
-277 468 278 0
-277 -468 493 279 0
278 434 -273 0
-278 -434 0
-278 273 0
279 -434 -133 -274 0
279 -170 -133 274 0
-279 133 0
-279 434 -274 0
-279 170 274 0
280 -495 -261 281 0
280 495 261 281 0
280 495 -535 261 0
280 -495 -535 -261 0
-280 -495 261 0
-280 495 -261 0
-280 535 -281 0
281 -147 282 0
281 -133 282 0
-281 -282 0
-281 147 133 0
282 149 -133 283 0
282 -133 283 -284 0
-282 133 0
-282 -283 0
-282 -149 284 0
283 23 -147 0
-283 -23 0
-283 147 0
284 158 189 0
284 147 158 0
-284 -158 0
-284 -147 -189 0
285 -462 478 290 0
285 -478 286 -290 0
285 -462 -478 -290 0
285 478 286 290 0
-285 478 -290 0
-285 -478 290 0
-285 462 -286 0
286 -287 289 0
286 58 -66 289 0
-286 -289 0
-286 -58 287 0
-286 66 287 0
287 434 -288 0
-287 -434 0
-287 288 0
288 -8 -20 0
-288 8 0
-288 20 0
289 -434 -288 0
289 58 -59 288 0
-289 59 288 0
-289 434 -288 0
-289 -58 288 0
290 25 208 0
290 -26 25 0
-290 -25 0
-290 26 -208 0
291 -292 -314 -320 -322 0
-291 322 0
-291 292 0
-291 320 0
-291 314 0
292 -293 -297 -298 -302 0
-292 302 0
-292 293 0
-292 298 0
-292 297 0
293 207 294 -295 0
293 -538 294 -295 0
-293 295 0
-293 -294 0
-293 538 -207 0
294 530 -206 0
294 -530 206 0
-294 -530 -206 0
-294 530 206 0
295 546 196 -296 0
295 -546 -196 -296 0
295 521 -546 -196 0
295 521 546 196 0
-295 -546 196 0
-295 546 -196 0
-295 -521 296 0
296 -205 208 0
296 208 -220 0
296 -8 208 0
-296 -208 0
-296 8 205 220 0
297 438 489 245 0
297 -489 -207 -245 0
297 438 -489 -245 0
297 489 -207 245 0
-297 489 -245 0
-297 -489 245 0
-297 -438 207 0
298 -467 208 299 0
298 467 -208 299 0
298 -467 133 208 0
298 467 133 -208 0
-298 -467 -208 0
-298 467 208 0
-298 -133 -299 0
299 -163 -157 0
299 -163 -300 0
299 528 157 -300 0
-299 157 300 0
-299 163 -157 0
-299 -528 163 0
300 -415 251 283 0
300 301 251 283 0
-300 -283 0
-300 -251 0
-300 415 -301 0
301 454 -548 0
-301 -454 0
-301 548 0
302 553 303 -304 -305 0
302 -553 -303 -304 -305 0
-302 305 0
-302 -553 303 0
-302 304 0
-302 553 -303 0
303 -123 -131 0
-303 123 0
-303 131 0
304 537 288 296 0
304 -537 -288 296 0
304 -521 537 288 0
304 -521 -537 -288 0
-304 -537 288 0
-304 537 -288 0
-304 521 -296 0
305 494 195 -306 309 0
305 -494 -195 -306 309 0
-305 -309 0
-305 -494 195 0
-305 306 0
-305 494 -195 0
306 -445 477 -233 307 0
306 445 -477 233 -307 0
306 445 477 233 307 0
306 -445 -477 -233 -307 0
-306 -445 233 0
-306 445 -233 0
-306 477 -307 0
-306 -477 307 0
307 -123 -308 0
-307 123 0
-307 308 0
308 23 -94 0
-308 -23 0
-308 94 0
309 -133 311 0
309 -554 -133 310 0
-309 133 0
-309 554 -311 0
-309 -310 -311 0
310 147 0
310 -427 23 0
310 23 178 0
-310 -23 -147 0
-310 427 -147 -178 0
311 459 312 0
311 169 312 0
-311 -312 0
-311 -459 -169 0
312 459 554 -313 0
312 -427 554 -313 0
-312 313 0
-312 -554 0
-312 427 -459 0
313 -178 -283 0
-313 178 0
-313 283 0
314 501 221 -315 -319 0
314 -501 -221 -315 -319 0
-314 319 0
-314 -501 221 0
-314 315 0
-314 501 -221 0
315 486 123 316 -317 0
315 -486 -123 316 -317 0
-315 -316 0
-315 486 -123 0
-315 317 0
-315 -486 123 0
316 -491 20 0
316 480 -20 0
316 -480 491 0
-316 -480 -491 -20 0
-316 480 491 20 0
317 516 519 318 0
317 -516 -197 318 0
-317 -318 0
-317 516 -519 0
-317 -516 197 0
318 529 -126 0
318 -529 126 0
-318 -529 -126 0
-318 529 126 0
319 555 20 246 0
319 -555 -20 246 0
319 -542 555 20 0
319 -542 -555 -20 0
-319 -555 20 0
-319 555 -20 0
-319 542 -246 0
320 -180 -321 0
320 267 268 0
320 268 -321 0
320 -180 267 0
-320 -267 321 0
-320 180 -268 0
321 415 -523 0
321 -415 -475 0
321 415 416 0
-321 -415 475 0
-321 415 -416 523 0
322 -323 -326 -329 -334 0
-322 334 0
-322 323 0
-322 329 0
-322 326 0
323 511 225 -324 325 0
323 -511 -225 -324 325 0
-323 -325 0
-323 -511 225 0
-323 324 0
-323 511 -225 0
324 -498 510 122 -235 0
324 -498 -510 -122 -235 0
324 498 510 122 235 0
324 498 -510 -122 235 0
-324 498 -235 0
-324 -498 235 0
-324 -510 122 0
-324 510 -122 0
325 502 -260 0
325 -502 260 0
-325 -502 -260 0
-325 502 260 0
326 -461 -327 -328 0
326 461 327 -328 0
-326 328 0
-326 -461 327 0
-326 461 -327 0
327 -123 -230 0
-327 123 0
-327 230 0
328 -448 542 -197 0
328 448 542 197 0
328 448 197 -246 0
328 -448 -197 -246 0
-328 -448 197 0
-328 448 -197 0
-328 -542 246 0
329 -126 -330 332 0
329 460 -330 332 0
-329 330 0
-329 -332 0
-329 -460 126 0
330 -123 331 0
330 531 557 331 0
-330 -331 0
-330 -557 123 0
-330 -531 123 0
331 519 -197 0
-331 -519 0
-331 197 0
332 465 -540 0
332 -465 333 0
-332 -465 -333 0
-332 465 540 0
333 88 113 0
-333 -88 0
-333 -113 0
334 -508 -335 403 0
334 126 -335 403 0
-334 335 0
-334 -403 0
-334 508 -126 0
335 503 333 -336 0
335 -503 -540 -333 -336 0
-335 -503 540 0
-335 503 -333 0
-335 336 0
-335 -503 333 0
336 -337 -338 -350 -352 0
-336 352 0
-336 337 0
-336 350 0
-336 338 0
337 -485 552 65 0
337 -552 57 -65 0
337 -485 -552 -65 0
337 552 57 65 0
-337 552 -65 0
-337 -552 65 0
-337 485 -57 0
338 522 69 -339 -340 0
338 -522 -69 -339 -340 0
-338 340 0
-338 -522 69 0
-338 339 0
-338 522 -69 0
339 485 533 0
339 -51 -57 0
339 533 -57 0
339 485 -51 0
-339 -533 51 0
-339 -485 57 0
340 -533 -341 -347 0
340 51 -341 -347 0
-340 347 0
-340 341 0
-340 533 -51 0
341 -342 -344 -345 -346 0
-341 346 0
-341 342 0
-341 345 0
-341 344 0
342 94 343 0
342 -442 -543 343 0
-342 -343 0
-342 543 -94 0
-342 442 -94 0
343 -473 110 0
-343 473 0
-343 -110 0
344 -539 -10 0
344 474 103 0
344 474 -539 0
344 -10 103 0
-344 -474 10 0
-344 539 -103 0
345 490 515 0
345 -94 -103 0
345 515 -103 0
345 490 -94 0
-345 -515 94 0
-345 -490 103 0
346 -473 10 0
346 -549 110 0
346 -473 -549 0
346 10 110 0
-346 473 -110 0
-346 549 -10 0
347 518 348 -349 0
347 -37 348 -349 0
-347 349 0
-347 -348 0
-347 -518 37 0
348 -442 94 0
348 -543 94 0
-348 -94 0
-348 442 543 0
349 -534 10 0
349 -474 71 0
349 -474 -534 0
349 10 71 0
-349 534 -71 0
-349 474 -10 0
350 -458 -84 -351 0
350 458 84 -351 0
-350 351 0
-350 -458 84 0
-350 458 -84 0
351 -446 -107 0
351 466 91 0
351 91 -107 0
351 -446 466 0
-351 -466 107 0
-351 446 -91 0
352 456 100 -353 -354 0
352 -456 -100 -353 -354 0
-352 354 0
-352 -456 100 0
-352 353 0
-352 456 -100 0
353 -466 -91 0
353 446 107 0
353 446 -466 0
353 -91 107 0
-353 -446 91 0
-353 466 -107 0
354 472 35 -355 -399 0
354 -472 -35 -355 -399 0
-354 399 0
-354 -472 35 0
-354 355 0
-354 472 -35 0
355 -356 -381 -388 -390 0
-355 390 0
-355 356 0
-355 388 0
-355 381 0
356 -357 -360 -363 -377 0
-356 377 0
-356 357 0
-356 363 0
-356 360 0
357 444 358 -359 0
357 -79 358 -359 0
-357 359 0
-357 -358 0
-357 -444 79 0
358 -517 25 0
358 -559 25 0
-358 -25 0
-358 517 559 0
359 -447 532 0
359 -46 66 0
359 532 66 0
359 -447 -46 0
-359 -532 46 0
-359 447 -66 0
360 -496 -361 362 0
360 -209 -361 362 0
-360 361 0
-360 -362 0
-360 496 209 0
361 -544 209 0
361 556 48 0
361 48 209 0
361 -544 556 0
-361 -556 -209 0
-361 544 -48 0
362 507 214 0
-362 -507 0
-362 -214 0
363 496 -364 -369 0
363 209 -364 -369 0
-363 369 0
-363 364 0
-363 -496 -209 0
364 -439 -366 0
364 365 -366 0
-364 366 0
-364 439 -365 0
365 -507 12 215 0
365 -558 -12 215 0
-365 -215 0
-365 507 12 0
-365 558 -12 0
366 -556 367 0
366 -476 368 0
366 -476 -556 0
366 367 368 0
-366 556 -368 0
-366 476 -367 0
367 -524 -73 200 0
367 -536 73 200 0
-367 -200 0
-367 536 73 0
-367 524 -73 0
368 -496 39 210 0
368 -551 -39 210 0
-368 -210 0
-368 496 39 0
-368 551 -39 0
369 415 545 -370 -372 0
369 -415 -545 -370 -372 0
-369 372 0
-369 -415 545 0
-369 370 0
-369 415 -545 0
370 451 471 513 -371 0
-370 371 0
-370 -513 0
-370 -451 0
-370 -471 0
371 -482 539 0
371 487 -512 0
371 487 539 0
371 -482 -512 0
-371 482 -487 0
-371 512 -539 0
372 455 9 -373 -376 0
372 -455 -9 -373 -376 0
-372 376 0
-372 -455 9 0
-372 373 0
-372 455 -9 0
373 544 374 -375 0
373 -532 374 -375 0
-373 375 0
-373 -374 0
-373 532 -544 0
374 -459 -554 0
-374 459 0
-374 554 0
375 -438 508 0
375 -460 538 0
375 -438 -460 0
375 508 538 0
-375 438 -538 0
-375 460 -508 0
376 -499 -23 0
376 499 23 0
-376 499 -23 0
-376 -499 23 0
377 514 -378 -380 0
377 -59 -378 -380 0
-377 380 0
-377 378 0
-377 -514 59 0
378 214 379 0
378 439 507 379 0
-378 -379 0
-378 -507 -214 0
-378 -439 -214 0
379 -476 -199 0
-379 476 0
-379 199 0
380 -444 67 0
380 -457 81 0
380 -444 -457 0
380 67 81 0
-380 444 -81 0
-380 457 -67 0
381 479 25 -382 -384 0
381 -479 -25 -382 -384 0
-381 384 0
-381 -479 25 0
-381 382 0
-381 479 -25 0
382 -518 383 0
382 509 43 383 0
-382 -383 0
-382 -509 518 0
-382 518 -43 0
383 -482 52 0
-383 482 0
-383 -52 0
384 549 385 -386 0
384 -16 385 -386 0
-384 386 0
-384 -385 0
-384 -549 16 0
385 559 -25 0
385 517 -25 0
-385 25 0
-385 -517 -559 0
386 -66 387 0
386 447 457 387 0
-386 -387 0
-386 -457 66 0
-386 -447 66 0
387 520 -59 0
387 514 -59 0
-387 59 0
-387 -514 -520 0
388 -500 -110 389 0
388 481 500 110 389 0
-388 -500 110 0
-388 500 -110 0
-388 -389 0
-388 -481 500 0
389 515 -94 0
-389 -515 0
-389 94 0
390 512 -391 -397 0
390 -103 -391 -397 0
-390 397 0
-390 391 0
-390 -512 103 0
391 -392 -393 -395 -396 0
-391 396 0
-391 392 0
-391 395 0
-391 393 0
392 -481 -536 199 0
392 -481 536 -199 0
392 536 111 -199 0
392 -536 111 199 0
-392 536 199 0
-392 -536 -199 0
-392 481 -111 0
393 85 394 0
393 -492 -497 394 0
-393 -394 0
-393 497 -85 0
-393 492 -85 0
394 -488 26 0
-394 488 0
-394 -26 0
395 -490 43 0
395 -509 104 0
395 -490 -509 0
395 43 104 0
-395 490 -104 0
-395 509 -43 0
396 -487 -61 0
396 520 53 0
396 53 -61 0
396 -487 520 0
-396 -520 61 0
-396 487 -53 0
397 -85 -398 0
397 492 497 -398 0
-397 398 0
-397 -497 85 0
-397 -492 85 0
398 541 28 0
398 -488 -541 -28 0
398 -488 27 28 0
-398 488 -541 0
-398 541 -28 0
-398 -541 -27 28 0
399 464 534 -400 0
399 -464 -71 -400 0
-399 400 0
-399 464 -534 0
-399 -464 71 0
400 469 -401 -402 0
400 -469 401 -402 0
-400 402 0
-400 469 401 0
-400 -469 -401 0
401 -31 -134 0
401 26 -134 0
-401 134 0
-401 -26 31 0
402 -443 449 -25 79 0
402 443 -449 25 -79 0
402 443 449 25 79 0
402 -443 -449 -25 -79 0
-402 -443 25 0
-402 443 -25 0
-402 449 -79 0
-402 -449 79 0
403 557 -123 0
403 531 -123 0
-403 123 0
-403 -531 -557 0
404 -405 -408 -413 -414 0
-404 414 0
-404 405 0
-404 413 0
-404 408 0
405 -453 535 406 0
405 453 -281 -406 0
405 453 535 -406 0
405 -453 -281 406 0
-405 -453 -406 0
-405 453 406 0
-405 -535 281 0
406 -128 407 0
406 23 407 0
-406 -407 0
-406 -23 128 0
407 436 37 123 -308 0
-407 308 0
-407 -123 0
-407 -436 0
-407 -37 0
408 -440 -409 0
408 440 409 0
408 -440 535 133 0
-408 440 -409 0
-408 -440 -133 409 0
-408 -440 -535 409 0
409 -282 410 -412 0
409 -23 -282 410 0
-409 282 0
-409 -410 0
-409 23 412 0
410 -149 -411 0
410 -149 239 0
-410 149 0
-410 -239 411 0
411 -440 -535 0
411 440 191 0
-411 -440 535 0
-411 440 -191 0
412 436 -440 535 158 0
-412 440 0
-412 -158 0
-412 -436 0
-412 -535 0
413 -504 525 -226 289 0
413 504 -525 226 -289 0
413 504 525 226 289 0
413 -504 -525 -226 -289 0
-413 -504 226 0
-413 504 -226 0
-413 525 -289 0
-413 -525 289 0
414 462 187 0
414 -548 -286 0
414 462 -548 0
414 187 -286 0
-414 -462 286 0
-414 548 -187 0
683 0
2 3 0
-2 -3 0
2 0

